\ENCODING=ISO-8859-1
\Problem name: 

Minimize
 obj1: x_0 + 2 x_1 + 2 x_2 + x_3
Subject To
 _0#0: x_0 >= 1
 _1#1: x_0 + x_1 >= 1
 _2#2: x_0 + x_1 >= 1
 _3#3: x_1 >= 1
Bounds
 0 <= x_0 <= 1
 0 <= x_1 <= 1
 0 <= x_2 <= 1
 0 <= x_3 <= 1
Binaries
 x_0  x_1  x_2  x_3 
End
